<number of tasks>
20

<cycle time>
1000

<order strength>
0,5


<task times>
1 129
2 232
3 24
4 110
5 215
6 43
7 60
8 127
9 152
10 173
11 302
12 127
13 83
14 120
15 318
16 207
17 27
18 177
19 142
20 169

<precedence relations>
1,8
2,3
2,4
2,5
2,6
2,7
3,8
4,8
5,8
6,8
7,9
7,10
8,11
8,12
8,13
8,14
11,15
12,16
15,18
16,17
16,19
16,20

<end>
